20	5
0	2	2	1
1	1	9
2	0
3	1	6
4	1	15
5	1	13
6	1	19
7	1	3
8	1	20
9	1	4
10	1	18
11	1	7
12	1	14
13	2	7	17
14	1	10
15	1	12
16	2	2	11
17	1	6
18	1	5
19	1	8
20	1	21
21	0
0	0	0	0	0	0	0
1	7	0	0	2	0	0
2	1	0	1	1	0	4
3	1	5	0	2	0	2
4	6	0	3	0	0	1
5	10	5	1	1	4	0
6	2	3	0	0	0	0
7	5	0	0	0	5	0
8	8	5	0	0	5	0
9	9	5	4	1	4	0
10	8	1	0	1	5	0
11	2	1	0	0	0	0
12	2	5	4	2	1	0
13	9	0	5	3	3	3
14	10	0	5	0	4	1
15	4	0	0	4	3	1
16	3	4	2	4	0	1
17	1	2	0	0	4	2
18	5	0	0	0	0	5
19	4	0	2	4	0	0
20	1	0	0	0	2	0
21	0	0	0	0	0	0
5	5	6	5	5
